Version identifier: 12.10.0.0 | 2019-11-26 | 843d4de
CPXPARAM_WorkMem                                 28672
Tried aggregator 2 times.
Aggregator did 50 substitutions.
Reduced MIP has 163 rows, 180 columns, and 771 nonzeros.
Reduced MIP has 180 binaries, 0 generals, 0 SOSs, and 0 indicators.
Presolve time = 0,00 sec. (0,76 ticks)
Found incumbent of value 882,000000 after 0,00 sec. (1,24 ticks)
Probing time = 0,00 sec. (0,37 ticks)
Tried aggregator 1 time.
Detecting symmetries...
MIP Presolve eliminated 21 rows and 0 columns.
MIP Presolve added 42 rows and 0 columns.
Reduced MIP has 184 rows, 180 columns, and 792 nonzeros.
Reduced MIP has 180 binaries, 0 generals, 0 SOSs, and 0 indicators.
Presolve time = 0,00 sec. (1,03 ticks)
Probing time = 0,00 sec. (0,36 ticks)
Clique table members: 571.
MIP emphasis: balance optimality and feasibility.
MIP search method: dynamic search.
Parallel mode: deterministic, using up to 16 threads.
Root relaxation solution time = 0,00 sec. (0,47 ticks)

        Nodes                                         Cuts/
   Node  Left     Objective  IInf  Best Integer    Best Bound    ItCnt     Gap

*     0+    0                          882,0000        0,0000           100,00%
*     0+    0                          642,0000        0,0000           100,00%
*     0+    0                          566,0000        0,0000           100,00%
      0     0      294,0000   168      566,0000      294,0000       45   48,06%
      0     0      295,2789   168      566,0000     Cuts: 150      111   47,83%
      0     0      298,4780   168      566,0000     Cuts: 146      143   47,27%
*     0+    0                          564,0000      298,4780            47,08%
      0     0      302,4199   168      564,0000      Cuts: 93      160   46,38%
      0     0      303,7541   168      564,0000     Cuts: 134      175   46,14%
      0     0      305,0741   168      564,0000       Cuts: 2      187   45,91%
      0     0      332,9619   168      564,0000     Cuts: 125      271   40,96%
*     0+    0                          555,0000      332,9619            40,01%
      0     0        cutoff            555,0000      555,0000      271    0,00%
Elapsed time = 0,11 sec. (44,27 ticks, tree = 0,01 MB, solutions = 5)

Clique cuts applied:  41
Cover cuts applied:  86
Implied bound cuts applied:  2
Flow cuts applied:  14
Mixed integer rounding cuts applied:  79
Zero-half cuts applied:  27
Gomory fractional cuts applied:  7

Root node processing (before b&c):
  Real time             =    0,11 sec. (44,29 ticks)
Parallel b&c, 16 threads:
  Real time             =    0,00 sec. (0,00 ticks)
  Sync time (average)   =    0,00 sec.
  Wait time (average)   =    0,00 sec.
                          ------------
Total (root+branch&cut) =    0,11 sec. (44,29 ticks)
